c SAT Generator for power-law distributed variable frequencies
c -g u -v 20 -c 91 -k 3 -p 2.750000 -b 3.200000 -f /home/schmidt/Devel/ni-kop-sat/data/ensemble/ruf20-91/ruf20-91-228 -u 1 -U 1 -s 1573468731
p cnf 20 91
3 6 -12 0
3 -4 10 0
3 -11 18 0
-11 -18 -20 0
5 -13 19 0
-4 -12 14 0
-5 6 10 0
-8 -19 20 0
11 13 -15 0
-2 15 -20 0
-3 16 -17 0
-2 4 9 0
2 6 -19 0
2 14 20 0
-7 -12 13 0
-4 -9 -13 0
-5 11 -16 0
3 -9 14 0
7 16 -19 0
5 -7 16 0
-4 17 -20 0
10 14 -15 0
1 -2 -11 0
-7 -9 -20 0
-4 12 18 0
-8 -15 16 0
-10 12 13 0
5 -12 15 0
6 -7 19 0
-1 8 14 0
1 6 -19 0
1 2 -11 0
11 14 -19 0
-10 -12 -17 0
-6 -10 -15 0
-8 9 -15 0
-10 -12 18 0
4 -15 -17 0
-3 -12 -20 0
-3 8 -19 0
11 16 -18 0
4 -11 -18 0
4 -15 20 0
3 -4 20 0
1 2 -3 0
-2 -8 16 0
6 7 14 0
1 3 -8 0
5 7 16 0
5 -10 -12 0
12 15 -20 0
1 12 15 0
6 -8 19 0
7 10 14 0
12 13 16 0
-3 16 17 0
-1 9 12 0
7 16 -20 0
9 14 20 0
8 -18 -20 0
3 6 -9 0
2 -4 20 0
5 -6 -9 0
3 -9 -20 0
3 -5 8 0
13 -14 -16 0
-14 17 -19 0
13 15 18 0
13 16 18 0
3 -8 -9 0
-1 3 4 0
3 -6 -19 0
-6 -9 -15 0
5 10 13 0
2 -14 20 0
-2 -12 -18 0
-4 14 15 0
2 -5 18 0
-3 15 -19 0
-2 10 -19 0
4 13 -14 0
2 4 18 0
7 15 -20 0
6 12 -20 0
-3 15 18 0
-8 -15 -20 0
-18 19 20 0
-6 -9 18 0
7 -8 9 0
-2 7 -12 0
-2 -6 15 0
